
Gurobi 10.0.3 (linux64, gurobi_cl) logging started Fri Nov 10 19:43:26 2023

Set parameter Username
Set parameter TimeLimit to value 3600
Set parameter LogFile to value "RCPSP_1723.log"
Set parameter Threads to value 32
Academic license - for non-commercial use only - expires 2024-10-30
Using license file /home/jrivera6/gurobi-licenses/v1003/compute-0-37/gurobi.lic

Gurobi Optimizer version 10.0.3 build v10.0.3rc0 (linux64)
Copyright (c) 2023, Gurobi Optimization, LLC

Read MPS format model from file RCPSP_1723.mps
Reading time = 0.08 seconds
RCPSP_1723: 75251 rows, 29890 columns, 251666 nonzeros

CPU model: Intel(R) Xeon(R) Gold 6242 CPU @ 2.80GHz, instruction set [SSE2|AVX|AVX2|AVX512]
Thread count: 32 physical cores, 32 logical processors, using up to 32 threads

Optimize a model with 75251 rows, 29890 columns and 251666 nonzeros
Model fingerprint: 0xe187d83e
Variable types: 122 continuous, 29768 integer (29768 binary)
Coefficient statistics:
  Matrix range     [1e+00, 7e+02]
  Objective range  [1e+00, 1e+00]
  Bounds range     [1e+00, 1e+00]
  RHS range        [1e+00, 7e+02]
Presolve removed 11825 rows and 2160 columns
Presolve time: 4.98s
Presolved: 63426 rows, 27730 columns, 222146 nonzeros
Variable types: 121 continuous, 27609 integer (27609 binary)

Deterministic concurrent LP optimizer: primal and dual simplex (primal and dual model)
Showing first log only...

Root relaxation presolved: 63426 rows, 27730 columns, 222146 nonzeros


Root simplex log...

Iteration    Objective       Primal Inf.    Dual Inf.      Time
       0    8.3884827e+01   2.859598e-01   2.646094e+08      7s
    4379    8.0000000e+01   0.000000e+00   0.000000e+00      8s
Concurrent spin time: 0.85s

Solved with dual simplex (primal model)

Root relaxation: objective 8.000000e+01, 10603 iterations, 3.79 seconds (0.50 work units)
Total elapsed time = 11.97s

    Nodes    |    Current Node    |     Objective Bounds      |     Work
 Expl Unexpl |  Obj  Depth IntInf | Incumbent    BestBd   Gap | It/Node Time

     0     0   80.00000    0  545          -   80.00000      -     -   18s
     0     0   80.00000    0  544          -   80.00000      -     -   18s
     0     0   80.00000    0 1755          -   80.00000      -     -  109s
     0     0   80.00000    0 1670          -   80.00000      -     -  112s
     0     0   80.00000    0 1648          -   80.00000      -     -  116s
     0     0   80.00000    0 1648          -   80.00000      -     -  118s
     0     0   80.00000    0 1477          -   80.00000      -     -  120s
     0     0   80.00000    0 1516          -   80.00000      -     -  121s
     0     0   80.00000    0 1504          -   80.00000      -     -  121s
     0     0   80.00000    0 1494          -   80.00000      -     -  122s
     0     0   80.00000    0  968          -   80.00000      -     -  134s
     0     0   80.00000    0  968          -   80.00000      -     -  135s
     0     0   80.00000    0  968          -   80.00000      -     -  136s
     0     0   80.00000    0  962          -   80.00000      -     -  136s
     0     0   80.00000    0 1135          -   80.00000      -     -  139s
     0     0   80.00000    0 1117          -   80.00000      -     -  139s
     0     0   80.00000    0  715          -   80.00000      -     -  152s
     0     0   80.00000    0  692          -   80.00000      -     -  153s
     0     0   80.00000    0  688          -   80.00000      -     -  153s
     0     0   80.00000    0 1134          -   80.00000      -     -  156s
     0     0   80.00000    0 1119          -   80.00000      -     -  158s
     0     0   80.00000    0 1118          -   80.00000      -     -  159s
     0     0   80.00000    0 1111          -   80.00000      -     -  160s
     0     0   80.00000    0  799          -   80.00000      -     -  170s
     0     0   80.00000    0  722          -   80.00000      -     -  172s
     0     0   80.00000    0  692          -   80.00000      -     -  173s
     0     0   80.00000    0  997          -   80.00000      -     -  174s
     0     0   80.00000    0  683          -   80.00000      -     -  199s
     0     0   80.00000    0 1869          -   80.00000      -     -  222s
     0     0   80.00000    0 1809          -   80.00000      -     -  227s
     0     0   80.00000    0 1723          -   80.00000      -     -  232s
     0     0   80.00000    0 1543          -   80.00000      -     -  234s
     0     0   80.00000    0 1533          -   80.00000      -     -  235s
     0     0   80.00000    0 1627          -   80.00000      -     -  393s
     0     0   80.00000    0 1541          -   80.00000      -     -  395s
     0     0   80.00000    0 1512          -   80.00000      -     -  395s
     0     0   80.00000    0  647          -   80.00000      -     -  414s
     0     0   80.00000    0 1023          -   80.00000      -     -  418s
     0     0   80.00000    0 1002          -   80.00000      -     -  418s
     0     0   80.00000    0  953          -   80.00000      -     -  435s
     0     0   80.00000    0  923          -   80.00000      -     -  435s
     0     0   80.00000    0 1258          -   80.00000      -     -  439s
     0     0   80.00000    0 1242          -   80.00000      -     -  439s
     0     0   80.00000    0 1101          -   80.00000      -     -  454s
     0     0   80.00000    0 1093          -   80.00000      -     -  454s
     0     0   80.00000    0 1617          -   80.00000      -     -  460s
     0     0   80.00000    0 1431          -   80.00000      -     -  462s
     0     0   80.00000    0 1451          -   80.00000      -     -  464s
     0     0   80.00016    0  886          -   80.00016      -     -  484s
     0     0   80.00016    0  883          -   80.00016      -     -  485s
     0     0   80.00016    0  552          -   80.00016      -     -  503s
     0     2   80.00016    0  471          -   80.00016      -     -  577s
     1     5   80.01210    1  573          -   80.01210      -  3266  587s
     3     7   80.01473    2  570          -   80.01473      -  1257  596s
     7    12   81.91781    3  462          -   80.01507      -   719  609s
    14    23   83.68421    4  437          -   80.01518      -   477  619s
    26    44   85.00000    5 1285          -   80.01525      -   485  678s
    49    69   85.00000    6 1250          -   80.01538      -  1077  801s
    81    95   85.00000    7 1334          -   80.01538      -  1366  840s
   113   118   85.00000    8 1273          -   80.01538      -  1300  855s
   145   144   85.00000    9 1225          -   80.01538      -  1042  862s
   177   181   85.00000   10 1245          -   80.01538      -   865  872s
   222   222   85.00000   11 1234          -   80.01538      -   715  883s
   271   269   85.00000   12 1226          -   80.01538      -   599  895s
   318   315   85.00000   13 1249          -   80.01538      -   526  910s
   366   365   85.00000   14 1249          -   80.01538      -   465  925s
   417   412   85.00000   16 1226          -   80.01538      -   418  941s
   471   464   85.00000   17 1224          -   80.01538      -   379  966s
   529   522   85.00000   19 1206          -   80.01538      -   345  979s
   589   587   85.00000   21 1123          -   80.01538      -   318  993s
   654   649   85.00000   22 1118          -   80.01538      -   293 1011s
   716   722   85.00000   24 1105          -   80.01538      -   277 1025s
   789   795   85.00000   26 1108          -   80.01538      -   257 1038s
   863   864   85.00000   27 1109          -   80.01538      -   242 1055s
   935   941   85.00000   29 1122          -   80.01538      -   230 1071s
  1012  1024   85.00000   31 1081          -   80.01538      -   218 1085s
  1096  1102   85.00000   33 1071          -   80.01538      -   205 1100s
  1175  1186   85.00000   35 1073          -   80.01538      -   195 1120s
  1262  1275   85.00000   37 1073          -   80.01538      -   185 1138s
  1360  1375   85.00000   40 1067          -   80.01538      -   176 1167s
  1472  1478   85.00000   43 1112          -   80.01538      -   167 1187s
  1590  1582   85.00000   44 1110          -   80.01538      -   161 1207s
  1703  1684   85.00000   47 1094          -   80.01538      -   156 1267s
  1822  1801   85.00000   50 1071          -   80.01538      -   151 1295s
  1955  1910   85.00000   54 1178          -   80.01538      -   147 1400s
  2069  2056   85.00000   55 1174          -   80.01538      -   144 1464s
  2107  2056   88.00000   69 1114          -   80.01538      -   143 1465s
  2219  2265   85.00000   57 1116          -   80.01538      -   139 1505s
  2435  2520   85.00000   59 1117          -   80.01538      -   132 1631s

Gurobi 10.0.3 (linux64, gurobi_cl) logging started Wed Nov 15 04:38:03 2023

Set parameter Username
Set parameter TimeLimit to value 3600
Set parameter LogFile to value "RCPSP_1723.log"
Set parameter Threads to value 32
Academic license - for non-commercial use only - expires 2024-11-06
Using license file /home/jrivera6/gurobi-licenses/v1003/compute-0-36/gurobi.lic

Gurobi Optimizer version 10.0.3 build v10.0.3rc0 (linux64)
Copyright (c) 2023, Gurobi Optimization, LLC

Read MPS format model from file RCPSP_1723.mps
Reading time = 0.15 seconds
RCPSP_1723: 75251 rows, 29890 columns, 251666 nonzeros

CPU model: Intel(R) Xeon(R) Gold 6130 CPU @ 2.10GHz, instruction set [SSE2|AVX|AVX2|AVX512]
Thread count: 32 physical cores, 32 logical processors, using up to 32 threads

Optimize a model with 75251 rows, 29890 columns and 251666 nonzeros
Model fingerprint: 0xe187d83e
Variable types: 122 continuous, 29768 integer (29768 binary)
Coefficient statistics:
  Matrix range     [1e+00, 7e+02]
  Objective range  [1e+00, 1e+00]
  Bounds range     [1e+00, 1e+00]
  RHS range        [1e+00, 7e+02]
Presolve removed 11163 rows and 1597 columns (presolve time = 5s) ...
Presolve removed 11825 rows and 2160 columns
Presolve time: 7.47s
Presolved: 63426 rows, 27730 columns, 222146 nonzeros
Variable types: 121 continuous, 27609 integer (27609 binary)

Deterministic concurrent LP optimizer: primal and dual simplex (primal and dual model)
Showing first log only...

Root relaxation presolved: 63426 rows, 27730 columns, 222146 nonzeros


Root simplex log...

Iteration    Objective       Primal Inf.    Dual Inf.      Time
       0    8.3884827e+01   2.859598e-01   2.646094e+08     10s
    4379    8.0000000e+01   0.000000e+00   0.000000e+00     13s
Concurrent spin time: 1.62s

Solved with dual simplex (primal model)

Root relaxation: objective 8.000000e+01, 10603 iterations, 6.09 seconds (0.50 work units)
Total elapsed time = 20.86s

    Nodes    |    Current Node    |     Objective Bounds      |     Work
 Expl Unexpl |  Obj  Depth IntInf | Incumbent    BestBd   Gap | It/Node Time

     0     0   80.00000    0  545          -   80.00000      -     -   32s
     0     0   80.00000    0  544          -   80.00000      -     -   33s
     0     0   80.00000    0 1755          -   80.00000      -     -  208s
     0     0   80.00000    0 1670          -   80.00000      -     -  215s
     0     0   80.00000    0 1648          -   80.00000      -     -  223s
     0     0   80.00000    0 1648          -   80.00000      -     -  228s
     0     0   80.00000    0 1477          -   80.00000      -     -  233s
     0     0   80.00000    0 1516          -   80.00000      -     -  235s
     0     0   80.00000    0 1504          -   80.00000      -     -  237s
     0     0   80.00000    0 1494          -   80.00000      -     -  238s
     0     0   80.00000    0  968          -   80.00000      -     -  268s
     0     0   80.00000    0  968          -   80.00000      -     -  269s
     0     0   80.00000    0  968          -   80.00000      -     -  273s
     0     0   80.00000    0  962          -   80.00000      -     -  273s
     0     0   80.00000    0 1135          -   80.00000      -     -  279s
     0     0   80.00000    0 1117          -   80.00000      -     -  279s
     0     0   80.00000    0  715          -   80.00000      -     -  304s
     0     0   80.00000    0  692          -   80.00000      -     -  306s
     0     0   80.00000    0  688          -   80.00000      -     -  306s
     0     0   80.00000    0 1134          -   80.00000      -     -  313s
     0     0   80.00000    0 1119          -   80.00000      -     -  316s
     0     0   80.00000    0 1118          -   80.00000      -     -  319s
     0     0   80.00000    0 1111          -   80.00000      -     -  319s
     0     0   80.00000    0  799          -   80.00000      -     -  341s
     0     0   80.00000    0  722          -   80.00000      -     -  345s
     0     0   80.00000    0  692          -   80.00000      -     -  346s
     0     0   80.00000    0  997          -   80.00000      -     -  348s
     0     0   80.00000    0  683          -   80.00000      -     -  410s
     0     0   80.00000    0 1869          -   80.00000      -     -  468s
     0     0   80.00000    0 1809          -   80.00000      -     -  483s
     0     0   80.00000    0 1723          -   80.00000      -     -  496s
     0     0   80.00000    0 1543          -   80.00000      -     -  502s
     0     0   80.00000    0 1533          -   80.00000      -     -  503s
     0     0   80.00000    0 1627          -   80.00000      -     -  742s
     0     0   80.00000    0 1541          -   80.00000      -     -  744s
     0     0   80.00000    0 1512          -   80.00000      -     -  744s
     0     0   80.00000    0  647          -   80.00000      -     -  775s
     0     0   80.00000    0 1023          -   80.00000      -     -  779s
     0     0   80.00000    0 1002          -   80.00000      -     -  780s
     0     0   80.00000    0  953          -   80.00000      -     -  805s
     0     0   80.00000    0  923          -   80.00000      -     -  805s
     0     0   80.00000    0 1258          -   80.00000      -     -  809s
     0     0   80.00000    0 1242          -   80.00000      -     -  809s
     0     0   80.00000    0 1101          -   80.00000      -     -  828s
     0     0   80.00000    0 1093          -   80.00000      -     -  828s
     0     0   80.00000    0 1617          -   80.00000      -     -  842s
     0     0   80.00000    0 1431          -   80.00000      -     -  845s
     0     0   80.00000    0 1451          -   80.00000      -     -  846s
     0     0   80.00016    0  886          -   80.00016      -     -  872s
     0     0   80.00016    0  883          -   80.00016      -     -  872s
     0     0   80.00016    0  552          -   80.00016      -     - 1351s
     0     2   80.00016    0  471          -   80.00016      -     - 1820s
     1     5   80.01210    1  573          -   80.01210      -  3266 2056s
     3     7   80.01473    2  570          -   80.01473      -  1257 2835s
     7    12   81.91781    3  462          -   80.01507      -   719 3576s
    14    20   83.68421    4  437          -   80.01518      -   477 3827s
    22    20  postponed    4               -   80.01525      -   385 3837s

Cutting planes:
  Gomory: 22
  Lift-and-project: 1
  Cover: 28
  Implied bound: 78
  MIR: 666
  StrongCG: 11
  Zero half: 1
  RLT: 348
  Relax-and-lift: 221

Explored 23 nodes (287211 simplex iterations) in 3852.70 seconds (112.82 work units)
Thread count was 32 (of 32 available processors)

Solution count 0

Time limit reached
Best objective -, best bound 8.001524614103e+01, gap -

Unable to retrieve attribute 'X'

